<instance format="XCSP3" type="COP">
  <variables>
    <array id="x" size="[50]"> 0 1 </array>
  </variables>
  <constraints>
    <sum>
      <list> x[] </list>
      <coeffs> 15 7 31 22 23 9 32 32 4 1 5 41 33 8 29 9 3 30 34 26 9 2 19 11 30 48 16 16 50 10 18 22 2 34 39 14 40 47 29 33 48 7 39 24 25 1 41 48 18 37 </coeffs>
      <condition> (le,200) </condition>
    </sum>
  </constraints>
  <objectives>
    <maximize type="sum">
      <list> x[] </list>
      <coeffs> 19 73 90 62 41 97 60 29 82 43 87 41 48 98 63 6 4 37 16 48 18 17 91 1 44 73 53 21 10 26 23 95 54 81 48 97 60 14 15 47 27 2 21 25 11 44 11 7 42 45 </coeffs>
    </maximize>
  </objectives>
</instance>
